0,271,76,294,95,186,541,259,144,259,93
271,0,97,433,525,340,193,166,274,556,239
76,97,0,244,310,186,508,534,350,222,385
294,433,244,0,445,293,544,438,68,415,375
95,525,310,445,0,387,291,287,153,199,252
186,340,186,293,387,0,377,367,301,381,131
541,193,508,544,291,377,0,332,179,279,196
259,166,534,438,287,367,332,0,456,471,269
144,274,350,68,153,301,179,456,0,48,482
259,556,222,415,199,381,279,471,48,0,96
93,239,385,375,252,131,196,269,482,96,0
